%chk=E:\gaussian-data\GO\GO-OPT.chk
# pbepbe/3-21g/auto

Title Card Required

0 1
 C                  0.00000000    0.00000000    0.00000000
 C                  2.46004920    1.42031007    0.00000000
 C                  2.46004920    0.00000000    0.00000000
 C                  4.92009840    1.42031007    0.00000000
 C                  4.91992620    0.00000000    0.00000000
 C                  7.37997540    1.42031007    0.00000000
 C                  7.37997540    0.00000000    0.00000000
 C                  9.84002460    1.42031007    0.00000000
 C                  9.84002460    0.00000000    0.00000000
 C                 12.30001640    1.42031007    0.00000000
 C                 12.30007380    0.00000000    0.00000000
 C                 14.75995080    1.42031007    0.00000000
 C                 14.75995080    0.00000000    0.00000000
 C                 17.22000000    1.42031007    0.00000000
 C                  1.23002460    2.13046510    0.00000000
 C                  3.69007380    3.55077517    0.00000000
 C                  3.69007380    2.13046510    0.00000000
 C                  6.15012300    3.55077517    0.00000000
 C                  6.14995080    2.13046510    0.00000000
 C                  8.61000000    3.55077517    0.00000000
 C                  8.61000000    2.13046510    0.00000000
 C                 11.07004920    3.55077517    0.00000000
 C                 11.07004920    2.13046510    0.00000000
 C                 13.53004100    3.55077517    0.00000000
 C                 13.53009840    2.13046510    0.00000000
 C                 15.98997540    3.55077517    0.00000000
 C                 15.98997540    2.13046510    0.00000000
 C                 18.45002460    3.55077517    0.00000000
 C                  2.45996310    4.26078107    0.00000000
 C                  4.92001230    5.68109114    0.00000000
 C                  4.92001230    4.26078107    0.00000000
 C                  7.38006150    5.68109114    0.00000000
 C                  7.37988930    4.26078107    0.00000000
 C                  9.83993850    5.68109114    0.00000000
 C                  9.83993850    4.26078107    0.00000000
 C                 12.29998770    5.68109114    0.00000000
 C                 12.29998770    4.26078107    0.00000000
 C                 14.75997950    5.68109114    0.00000000
 C                 14.76003690    4.26078107    0.00000000
 C                 17.21991390    5.68109114    0.00000000
 C                 17.21991390    4.26078107    0.00000000
 C                 19.67996310    5.68109114    0.00000000
 C                  3.68998770    6.39124618    0.00000000
 C                  6.15003690    7.81155624    0.00000000
 C                  6.15003690    6.39124618    0.00000000
 C                  8.61008610    7.81155624    0.00000000
 C                  8.60991390    6.39124618    0.00000000
 C                 11.06996310    7.81155624    0.00000000
 C                 11.06996310    6.39124618    0.00000000
 C                 13.53001230    7.81155624    0.00000000
 C                 13.53001230    6.39124618    0.00000000
 C                 15.99000410    7.81155624    0.00000000
 C                 15.99006150    6.39124618    0.00000000
 C                 18.44993850    7.81155624    0.00000000
 C                 18.44993850    6.39124618    0.00000000
 C                 20.90998770    7.81155624    0.00000000
 C                  4.92001230    8.52171128    0.00000000
 C                  7.38003280    9.94197164    0.00000000
 C                  7.38006150    8.52171128    0.00000000
 C                  9.84008200    9.94197164    0.00000000
 C                  9.83993850    8.52171128    0.00000000
 C                 12.29995900    9.94197164    0.00000000
 C                 12.29998770    8.52171128    0.00000000
 C                 14.76000820    9.94197164    0.00000000
 C                 14.76003690    8.52171128    0.00000000
 C                 17.22000000    9.94197164    0.00000000
 C                 17.22008610    8.52171128    0.00000000
 C                 19.67993440    9.94197164    0.00000000
 C                 19.67996310    8.52171128    0.00000000
 C                 22.13998360    9.94197164    0.00000000
 C                  6.15003690   10.65217638    0.00000000
 C                  8.61000000   12.07233732    0.00000000
 C                  8.61008610   10.65217638    0.00000000
 C                 11.07004920   12.07233732    0.00000000
 C                 11.06996310   10.65217638    0.00000000
 C                 13.52992620   12.07233732    0.00000000
 C                 13.53001230   10.65217638    0.00000000
 C                 15.98997540   12.07233732    0.00000000
 C                 15.99006150   10.65217638    0.00000000
 C                 18.44996720   12.07233732    0.00000000
 C                 18.45011070   10.65217638    0.00000000
 C                 20.90990160   12.07233732    0.00000000
 C                 20.90998770   10.65217638    0.00000000
 C                 23.36995080   12.07233732    0.00000000
 C                  7.37997540   12.78249235    0.00000000
 C                  9.84002460   14.20280242    0.00000000
 C                  9.84002460   12.78249235    0.00000000
 C                 12.30007380   14.20280242    0.00000000
 C                 12.29990160   12.78249235    0.00000000
 C                 14.75995080   14.20280242    0.00000000
 C                 14.75995080   12.78249235    0.00000000
 C                 17.22000000   14.20280242    0.00000000
 C                 17.22000000   12.78249235    0.00000000
 C                 19.67999180   14.20280242    0.00000000
 C                 19.68004920   12.78249235    0.00000000
 C                 22.13992620   14.20280242    0.00000000
 C                 22.13992620   12.78249235    0.00000000
 C                 24.59997540   14.20280242    0.00000000
 C     7.3799754 12.78249235 0.00000000
 C     9.8400246 14.20280242 0.00000000
 C     9.8400246 12.78249235 0.00000000
 C     12.3000738 14.20280242 0.00000000
 C     12.2999016 12.78249235 0.00000000
 C     14.7599508 14.20280242 0.00000000
 C     14.7599508 12.78249235 0.00000000
 C     17.22 14.20280242 0.00000000
 C     17.22 12.78249235 0.00000000
 C     19.6799918 14.20280242 0.00000000
 C     19.6800492 12.78249235 0.00000000
 C     22.1399262 14.20280242 0.00000000
 C     22.1399262 12.78249235 0.00000000
 C     24.5999754 14.20280242 0.00000000
 C     8.61 14.91295745 0.00000000
 C     11.0700492 16.33326752 0.00000000
 C     11.0700492 14.91295745 0.00000000
 C     13.5300984 16.33326752 0.00000000
 C     13.5299262 14.91295745 0.00000000
 C     15.9899754 16.33326752 0.00000000
 C     15.9899754 14.91295745 0.00000000
 C     18.4500246 16.33326752 0.00000000
 C     18.4500246 14.91295745 0.00000000
 C     20.9100164 16.33326752 0.00000000
 C     20.9100738 14.91295745 0.00000000
 C     23.3699508 16.33326752 0.00000000
 C     23.3699508 14.91295745 0.00000000
 C     25.83 16.33326752 0.00000000
 C     9.8399385 17.04327342 0.00000000
 C     12.2999877 18.46358349 0.00000000
 C     12.2999877 17.04327342 0.00000000
 C     14.7600369 18.46358349 0.00000000
 C     14.7598647 17.04327342 0.00000000
 C     17.2199139 18.46358349 0.00000000
 C     17.2199139 17.04327342 0.00000000
 C     19.6799631 18.46358349 0.00000000
 C     19.6799631 17.04327342 0.00000000
 C     22.1399549 18.46358349 0.00000000
 C     22.1400123 17.04327342 0.00000000
 C     24.5998893 18.46358349 0.00000000
 C     24.5998893 17.04327342 0.00000000
 C     27.0599385 18.46358349 0.00000000
 C     11.0699631 19.17373853 0.00000000
 C     13.5300123 20.59404859 0.00000000
 C     13.5300123 19.17373853 0.00000000
 C     15.9900615 20.59404859 0.00000000
 C     15.9898893 19.17373853 0.00000000
 C     18.4499385 20.59404859 0.00000000
 C     18.4499385 19.17373853 0.00000000
 C     20.9099877 20.59404859 0.00000000
 C     20.9099877 19.17373853 0.00000000
 C     23.3699795 20.59404859 0.00000000
 C     23.3700369 19.17373853 0.00000000
 C     25.8299139 20.59404859 0.00000000
 C     25.8299139 19.17373853 0.00000000
 C     28.2899631 20.59404859 0.00000000
 C     12.2999877 21.30420363 0.00000000
 C     14.7600082 22.72446399 0.00000000
 C     14.7600369 21.30420363 0.00000000
 C     17.2200574 22.72446399 0.00000000
 C     17.2199139 21.30420363 0.00000000
 C     19.6799344 22.72446399 0.00000000
 C     19.6799631 21.30420363 0.00000000
 C     22.1399836 22.72446399 0.00000000
 C     22.1400123 21.30420363 0.00000000
 C     24.5999754 22.72446399 0.00000000
 C     24.6000615 21.30420363 0.00000000
 C     27.0599098 22.72446399 0.00000000
 C     27.0599385 21.30420363 0.00000000
 C     29.519959 22.72446399 0.00000000
 C     13.5300123 23.43466873 0.00000000
 C     15.9899754 24.85482967 0.00000000
 C     15.9900615 23.43466873 0.00000000
 C     18.4500246 24.85482967 0.00000000
 C     18.4499385 23.43466873 0.00000000
 C     20.9099016 24.85482967 0.00000000
 C     20.9099877 23.43466873 0.00000000
 C     23.3699508 24.85482967 0.00000000
 C     23.3700369 23.43466873 0.00000000
 C     25.8299426 24.85482967 0.00000000
 C     25.8300861 23.43466873 0.00000000
 C     28.289877 24.85482967 0.00000000
 C     28.2899631 23.43466873 0.00000000
 C     30.7499262 24.85482967 0.00000000
 C     14.7599508 25.5649847 0.00000000
 C     17.22 26.98529477 0.00000000
 C     17.22 25.5649847 0.00000000
 C     19.6800492 26.98529477 0.00000000
 C     19.679877 25.5649847 0.00000000
 C     22.1399262 26.98529477 0.00000000
 C     22.1399262 25.5649847 0.00000000
 C     24.5999754 26.98529477 0.00000000
 C     24.5999754 25.5649847 0.00000000
 C     27.0599672 26.98529477 0.00000000
 C     27.0600246 25.5649847 0.00000000
 C     29.5199016 26.98529477 0.00000000
 C     29.5199016 25.5649847 0.00000000
 C     31.9799508 26.98529477 0.00000000

